unsat
(forall ((A (_ BitVec 21))
         (B (_ BitVec 14))
         (C (_ BitVec 14))
         (D (_ BitVec 23))
         (E (_ BitVec 14))
         (F (_ BitVec 14))
         (G (_ BitVec 17))
         (H (_ BitVec 23))
         (I (_ BitVec 18))
         (J (_ BitVec 23))
         (K (_ BitVec 3))
         (L (_ BitVec 1))
         (M (_ BitVec 39))
         (N (_ BitVec 21))
         (O (_ BitVec 1))
         (P (_ BitVec 21))
         (Q (_ BitVec 21))
         (R (_ BitVec 21))
         (S (_ BitVec 18))
         (T (_ BitVec 18))
         (U (_ BitVec 18))
         (V (_ BitVec 18))
         (W (_ BitVec 1))
         (X (_ BitVec 23))
         (Y (_ BitVec 1))
         (Z (_ BitVec 21))
         (A1 (_ BitVec 9))
         (B1 (_ BitVec 18))
         (C1 (_ BitVec 21))
         (D1 (_ BitVec 14))
         (E1 (_ BitVec 21))
         (F1 (_ BitVec 39))
         (G1 (_ BitVec 1))
         (H1 (_ BitVec 18))
         (I1 (_ BitVec 1))
         (J1 (_ BitVec 39))
         (K1 (_ BitVec 21))
         (L1 (_ BitVec 39))
         (M1 (_ BitVec 18))
         (N1 (_ BitVec 14))
         (O1 (_ BitVec 21))
         (P1 (_ BitVec 8))
         (Q1 (_ BitVec 1))
         (R1 (_ BitVec 18))
         (S1 (_ BitVec 54))
         (T1 (_ BitVec 23))
         (U1 (_ BitVec 21))
         (V1 (_ BitVec 21))
         (W1 (_ BitVec 21))
         (X1 (_ BitVec 1))
         (Y1 (_ BitVec 39))
         (Z1 (_ BitVec 1))
         (A2 (_ BitVec 1))
         (B2 (_ BitVec 21))
         (C2 (_ BitVec 1))
         (D2 (_ BitVec 14))
         (E2 (_ BitVec 39))
         (F2 (_ BitVec 1))
         (G2 (_ BitVec 21))
         (H2 (_ BitVec 21))
         (I2 (_ BitVec 21))
         (J2 (_ BitVec 23))
         (K2 (_ BitVec 23))
         (L2 (_ BitVec 21))
         (M2 (_ BitVec 21))
         (N2 (_ BitVec 17))
         (O2 (_ BitVec 1))
         (P2 (_ BitVec 1))
         (Q2 (_ BitVec 21))
         (R2 (_ BitVec 39))
         (S2 (_ BitVec 63))
         (T2 (_ BitVec 39))
         (U2 (_ BitVec 1))
         (V2 (_ BitVec 40))
         (W2 (_ BitVec 40))
         (X2 (_ BitVec 32))
         (Y2 (_ BitVec 32))
         (Z2 (_ BitVec 18))
         (A3 (_ BitVec 18))
         (B3 (_ BitVec 21))
         (C3 (_ BitVec 39))
         (D3 (_ BitVec 21))
         (E3 (_ BitVec 23))
         (F3 (_ BitVec 23))
         (G3 (_ BitVec 21))
         (H3 (_ BitVec 21))
         (I3 (_ BitVec 1))
         (J3 (_ BitVec 1))
         (K3 (_ BitVec 1))
         (L3 (_ BitVec 21))
         (M3 (_ BitVec 21))
         (N3 (_ BitVec 32))
         (O3 (_ BitVec 1))
         (P3 (_ BitVec 40))
         (Q3 (_ BitVec 32))
         (R3 (_ BitVec 1)))
  (! (let ((a!1 (or ((_ bit2bool 0) S1)
                    ((_ bit2bool 11) S1)
                    ((_ bit2bool 35) S1)
                    ((_ bit2bool 5) S1)
                    ((_ bit2bool 8) S1)
                    ((_ bit2bool 1) K)
                    ((_ bit2bool 1) S1)
                    ((_ bit2bool 2) S1)
                    ((_ bit2bool 3) S1)
                    ((_ bit2bool 4) S1)
                    ((_ bit2bool 6) S1)
                    ((_ bit2bool 7) S1)
                    ((_ bit2bool 9) S1)
                    ((_ bit2bool 10) S1)
                    ((_ bit2bool 12) S1)
                    ((_ bit2bool 13) S1)
                    ((_ bit2bool 14) S1)
                    ((_ bit2bool 15) S1)
                    ((_ bit2bool 16) S1)
                    ((_ bit2bool 52) S1)
                    (not ((_ bit2bool 36) S1))
                    (= ((_ extract 2 1) (bvadd #b001 K)) #b00)))
           (a!2 (= (concat ((_ extract 16 16) N2) N2)
                   (bvmul #b111111111111111111 (concat ((_ extract 16 16) G) G))))
           (a!3 (or ((_ bit2bool 1) K)
                    ((_ bit2bool 3) S1)
                    ((_ bit2bool 38) S1)
                    ((_ bit2bool 2) K)
                    (not ((_ bit2bool 39) S1))
                    (not ((_ bit2bool 0) K))
                    (not (= ((_ extract 34 18) S1) #b00000000000000001))))
           (a!4 (= (ite (= ((_ extract 2 1) K) #b00) S B1) #b000000000000000000))
           (a!5 (bvadd (bvmul #b11111111111111111
                              (concat ((_ extract 31 31) Y2)
                                      ((_ extract 31 16) Y2)))
                       (concat ((_ extract 31 31) X2) ((_ extract 31 16) X2))))
           (a!7 (or ((_ bit2bool 1) K)
                    ((_ bit2bool 2) K)
                    (not ((_ bit2bool 37) S1))
                    (not ((_ bit2bool 0) K))
                    (not ((_ bit2bool 19) S1))
                    (not ((_ bit2bool 18) S1))
                    (not (= ((_ extract 16 0) S1) #b00000000000000000))))
           (a!8 ((_ extract 2 2)
                  (bvadd (concat #b000 ((_ extract 22 2) J2)) (concat #b0 K2))))
           (a!9 (not (= ((_ extract 3 2) J2) (bvmul #b11 ((_ extract 1 0) K2)))))
           (a!10 (or ((_ bit2bool 1) K)
                     ((_ bit2bool 2) S1)
                     ((_ bit2bool 20) S1)
                     ((_ bit2bool 2) K)
                     (not ((_ bit2bool 0) K))
                     (not (= ((_ extract 53 36) S1) #b111111111111111100))))
           (a!11 (or (= Q #b000000000000000000000)
                     (= V #b000000000000000000)
                     (not (= ((_ extract 5 0) L1) #b000000))))
           (a!12 (or (= I #b000000000000000000)
                     (= G2 #b000000000000000000000)
                     ((_ bit2bool 4) E2)
                     (not (= ((_ extract 3 0) E2) #x0))))
           (a!13 (not (= ((_ extract 5 4) E2) (bvmul #b11 ((_ extract 1 0) J)))))
           (a!15 (or (= W1 #b000000000000000000000)
                     (= Z2 #b000000000000000000)
                     (not (= ((_ extract 7 0) Y1) #x00))))
           (a!16 (or (= U #b000000000000000000)
                     (= G3 #b000000000000000000000)
                     (not (= ((_ extract 9 0) J1) #b0000000000))))
           (a!17 (or (not (= ((_ extract 11 0) F1) #x000))
                     (= A3 #b000000000000000000)
                     (= Q2 #b000000000000000000000)))
           (a!18 (or (= H1 #b000000000000000000)
                     (= B3 #b000000000000000000000)
                     (not (= ((_ extract 15 0) M) #x0000)))))
     (let ((a!6 (= (concat ((_ extract 16 16) a!5) a!5)
                   (bvmul #b111111111111111111 (concat ((_ extract 16 16) G) G))))
           (a!14 (or (= I #b000000000000000000)
                     (= G2 #b000000000000000000000)
                     (not (= ((_ extract 3 0) E2) #x0))
                     a!13)))
     (let ((a!19 (and (or (not (= Y #b0)) (= W #b0))
                      (not (= ((_ extract 0 0) F) #b1))
                      (or (not ((_ bit2bool 0) L))
                          ((_ bit2bool 0) A2)
                          (not (= K #b000)))
                      (not ((_ bit2bool 1) N1))
                      (or ((_ bit2bool 18) S1)
                          ((_ bit2bool 1) K)
                          ((_ bit2bool 2) S1)
                          ((_ bit2bool 19) S1)
                          ((_ bit2bool 38) S1)
                          ((_ bit2bool 2) K)
                          (not ((_ bit2bool 0) K))
                          (not ((_ bit2bool 20) S1)))
                      (not ((_ bit2bool 1) F))
                      (not ((_ bit2bool 0) N1))
                      (not ((_ bit2bool 3) N1))
                      (not ((_ bit2bool 1) D1))
                      (not ((_ bit2bool 3) D1))
                      (not ((_ bit2bool 5) N1))
                      (not ((_ bit2bool 1) D2))
                      (not ((_ bit2bool 2) N1))
                      (not ((_ bit2bool 0) D1))
                      (not ((_ bit2bool 2) D1))
                      (not ((_ bit2bool 0) D2))
                      (not ((_ bit2bool 4) N1))
                      (or ((_ bit2bool 1) K)
                          ((_ bit2bool 2) K)
                          (not ((_ bit2bool 62) S2))
                          ((_ bit2bool 39) V2)
                          (not ((_ bit2bool 0) K)))
                      (not ((_ bit2bool 6) N1))
                      (not ((_ bit2bool 4) D1))
                      (not ((_ bit2bool 2) D2))
                      a!1
                      (or ((_ bit2bool 35) S1)
                          ((_ bit2bool 1) K)
                          ((_ bit2bool 52) S1)
                          ((_ bit2bool 2) K)
                          (not ((_ bit2bool 36) S1))
                          (not ((_ bit2bool 0) K))
                          (not a!2))
                      (or ((_ bit2bool 0) G)
                          ((_ bit2bool 1) K)
                          ((_ bit2bool 1) G)
                          ((_ bit2bool 2) G)
                          ((_ bit2bool 2) S1)
                          ((_ bit2bool 2) K)
                          (not ((_ bit2bool 38) S1))
                          (not ((_ bit2bool 0) K)))
                      (or (= H1 #b000000000000000000)
                          ((_ bit2bool 40) S2)
                          (not ((_ bit2bool 20) S2))
                          (= ((_ extract 61 61) S2) #b1))
                      (or ((_ bit2bool 18) S1)
                          ((_ bit2bool 1) K)
                          ((_ bit2bool 1) S1)
                          ((_ bit2bool 37) S1)
                          ((_ bit2bool 2) K)
                          (not ((_ bit2bool 0) K))
                          (not ((_ bit2bool 19) S1)))
                      (or ((_ bit2bool 21) S1)
                          ((_ bit2bool 1) K)
                          ((_ bit2bool 2) S1)
                          ((_ bit2bool 3) S1)
                          ((_ bit2bool 2) K)
                          (not ((_ bit2bool 0) K))
                          (not ((_ bit2bool 20) S1))
                          (= ((_ extract 39 39) S1) #b1))
                      (or ((_ bit2bool 1) K)
                          ((_ bit2bool 3) S1)
                          ((_ bit2bool 20) S1)
                          ((_ bit2bool 38) S1)
                          ((_ bit2bool 2) K)
                          (not ((_ bit2bool 0) K))
                          (not ((_ bit2bool 21) S1))
                          (= ((_ extract 39 39) S1) #b1))
                      (or ((_ bit2bool 1) K)
                          ((_ bit2bool 2) S1)
                          ((_ bit2bool 2) K)
                          (not ((_ bit2bool 37) S1))
                          (not ((_ bit2bool 38) S1))
                          (not ((_ bit2bool 0) K))
                          (not ((_ bit2bool 20) S1))
                          (not ((_ bit2bool 19) S1)))
                      (or ((_ bit2bool 1) K)
                          ((_ bit2bool 17) S1)
                          ((_ bit2bool 2) K)
                          (not ((_ bit2bool 53) S1))
                          (not ((_ bit2bool 0) K))
                          (not ((_ bit2bool 34) S1)))
                      (not ((_ bit2bool 7) N1))
                      (not ((_ bit2bool 5) D1))
                      (not ((_ bit2bool 3) D2))
                      (or ((_ bit2bool 0) S1)
                          ((_ bit2bool 18) S1)
                          ((_ bit2bool 1) K)
                          ((_ bit2bool 2) K)
                          (not ((_ bit2bool 36) S1))
                          (not ((_ bit2bool 0) K)))
                      (or (= A3 #b000000000000000000)
                          ((_ bit2bool 17) S1)
                          (not ((_ bit2bool 53) S1))
                          (not ((_ bit2bool 34) S1))
                          (not ((_ bit2bool 2) S1)))
                      (or (not (= A2 #b1))
                          (not (= X1 #b1))
                          (= B3 #b000000000000000000000))
                      (or (not (= X1 #b1))
                          (= T #b000000000000000000)
                          (= A2 #b0))
                      (or (= H1 #b000000000000000000)
                          (not (= X1 #b1))
                          (= B3 #b000000000000000000000)
                          (not (= G1 #b1)))
                      (not ((_ bit2bool 9) N1))
                      (not ((_ bit2bool 3) F))
                      (or ((_ bit2bool 0) S1)
                          ((_ bit2bool 1) K)
                          ((_ bit2bool 36) S1)
                          ((_ bit2bool 2) K)
                          (not ((_ bit2bool 0) K))
                          (not ((_ bit2bool 18) S1)))
                      (not ((_ bit2bool 5) D2))
                      (not ((_ bit2bool 7) D1))
                      (not ((_ bit2bool 1) E))
                      (or ((_ bit2bool 0) S1)
                          ((_ bit2bool 1) K)
                          ((_ bit2bool 1) S1)
                          ((_ bit2bool 19) S1)
                          ((_ bit2bool 37) S1)
                          ((_ bit2bool 2) K)
                          (not ((_ bit2bool 0) K))
                          (not ((_ bit2bool 18) S1)))
                      a!3
                      (or ((_ bit2bool 18) S1)
                          ((_ bit2bool 1) K)
                          ((_ bit2bool 36) S1)
                          ((_ bit2bool 2) K)
                          (not ((_ bit2bool 0) K))
                          (not ((_ bit2bool 0) S1)))
                      (or ((_ bit2bool 26) S1)
                          ((_ bit2bool 1) K)
                          ((_ bit2bool 25) S1)
                          ((_ bit2bool 44) S1)
                          ((_ bit2bool 2) K)
                          (not ((_ bit2bool 0) K))
                          (not ((_ bit2bool 8) S1))
                          (not ((_ bit2bool 7) S1)))
                      (or ((_ bit2bool 1) K)
                          ((_ bit2bool 19) S1)
                          ((_ bit2bool 20) S1)
                          ((_ bit2bool 38) S1)
                          ((_ bit2bool 2) K)
                          (not ((_ bit2bool 0) K))
                          (not ((_ bit2bool 2) S1))
                          (not ((_ bit2bool 0) S1)))
                      (or ((_ bit2bool 1) K)
                          ((_ bit2bool 19) S1)
                          ((_ bit2bool 37) S1)
                          ((_ bit2bool 2) K)
                          (not ((_ bit2bool 0) K))
                          (not ((_ bit2bool 1) S1))
                          (not ((_ bit2bool 0) S1)))
                      (or (= T #b000000000000000000)
                          (not (= G1 #b1))
                          (= A2 #b0))
                      (not ((_ bit2bool 6) D1))
                      (not ((_ bit2bool 8) N1))
                      (not ((_ bit2bool 4) D2))
                      (not ((_ bit2bool 2) F))
                      (not ((_ bit2bool 0) E))
                      (or ((_ bit2bool 1) K)
                          ((_ bit2bool 2) K)
                          (not ((_ bit2bool 0) K))
                          (not ((_ bit2bool 7) S1))
                          (not a!2))
                      (or ((_ bit2bool 1) K)
                          ((_ bit2bool 1) G)
                          ((_ bit2bool 2) K)
                          (not ((_ bit2bool 0) K))
                          (not ((_ bit2bool 19) S1)))
                      (or (not (= G1 #b1))
                          (= ((_ extract 0 0) K) #b1)
                          (= A2 #b0))
                      (or (= H1 #b000000000000000000)
                          ((_ bit2bool 19) S1)
                          (not ((_ bit2bool 36) S1))
                          (not ((_ bit2bool 37) S1))
                          (not ((_ bit2bool 18) S1))
                          (not ((_ bit2bool 1) S1)))
                      (or (not (= X1 #b1))
                          ((_ bit2bool 1) K)
                          (not (= O2 #b1))
                          (not ((_ bit2bool 0) K)))
                      (or (= U #b000000000000000000)
                          ((_ bit2bool 19) S1)
                          (not ((_ bit2bool 36) S1))
                          (not ((_ bit2bool 37) S1))
                          (not ((_ bit2bool 18) S1))
                          (not ((_ bit2bool 1) S1)))
                      (or ((_ bit2bool 1) K)
                          ((_ bit2bool 20) S1)
                          ((_ bit2bool 37) S1)
                          ((_ bit2bool 38) S1)
                          ((_ bit2bool 2) K)
                          (not ((_ bit2bool 0) K))
                          (not ((_ bit2bool 2) S1))
                          (not ((_ bit2bool 1) S1)))
                      (or (= Z2 #b000000000000000000)
                          (not (= X1 #b1))
                          (= A2 #b0))
                      (or ((_ bit2bool 1) K)
                          ((_ bit2bool 2) K)
                          ((_ bit2bool 39) S2)
                          (not ((_ bit2bool 18) V2))
                          (not ((_ bit2bool 0) K)))
                      (or (not (= X1 #b1))
                          (= ((_ extract 0 0) K) #b1)
                          (= A2 #b0))
                      (or (not (= X1 #b1)) (= A2 #b0) a!4)
                      (or (= B1 #b000000000000000000)
                          (not (= X1 #b1))
                          (not (= G1 #b1)))
                      (or (not (= A2 #b1))
                          ((_ bit2bool 1) K)
                          (not ((_ bit2bool 0) K)))
                      (or ((_ bit2bool 1) K)
                          ((_ bit2bool 16) N2)
                          ((_ bit2bool 2) K)
                          (not ((_ bit2bool 53) S1))
                          (not ((_ bit2bool 0) K)))
                      (or ((_ bit2bool 1) K)
                          ((_ bit2bool 17) S1)
                          ((_ bit2bool 2) K)
                          (not ((_ bit2bool 53) S1))
                          (not ((_ bit2bool 0) K))
                          (= ((_ extract 16 16) a!5) #b1)
                          (not a!6))
                      a!7
                      (or ((_ bit2bool 1) K)
                          ((_ bit2bool 1) S1)
                          ((_ bit2bool 19) S1)
                          ((_ bit2bool 2) K)
                          (not ((_ bit2bool 37) S1))
                          (not ((_ bit2bool 0) K))
                          (not ((_ bit2bool 0) S1)))
                      (or ((_ bit2bool 1) K)
                          ((_ bit2bool 2) K)
                          (not ((_ bit2bool 36) S1))
                          (not ((_ bit2bool 0) K))
                          (not ((_ bit2bool 18) S1))
                          (not ((_ bit2bool 0) S1)))
                      (or ((_ bit2bool 1) K)
                          ((_ bit2bool 2) S1)
                          ((_ bit2bool 2) K)
                          (not ((_ bit2bool 39) S1))
                          (not ((_ bit2bool 0) K))
                          (not ((_ bit2bool 20) S1))
                          (not ((_ bit2bool 3) S1))
                          (= ((_ extract 21 21) S1) #b1))
                      (or (not (= D3 #b000000000000000000000))
                          (= R #b000000000000000000000))
                      (or (= G2 #b000000000000000000000)
                          (not (= H2 #b000000000000000000000)))
                      (or (= R #b000000000000000000000)
                          (= M1 #b000000000000000000)
                          ((_ bit2bool 0) D3)
                          ((_ bit2bool 1) D3)
                          (= a!8 #b1)
                          a!9)
                      a!10
                      (or ((_ bit2bool 1) K)
                          ((_ bit2bool 2) S1)
                          ((_ bit2bool 19) S1)
                          ((_ bit2bool 20) S1)
                          ((_ bit2bool 2) K)
                          (not ((_ bit2bool 38) S1))
                          (not ((_ bit2bool 0) K))
                          (not ((_ bit2bool 0) S1)))
                      (or ((_ bit2bool 0) G)
                          ((_ bit2bool 1) K)
                          ((_ bit2bool 2) K)
                          (not ((_ bit2bool 0) K))
                          (not ((_ bit2bool 18) S1)))
                      (or (= R #b000000000000000000000)
                          ((_ bit2bool 2) D3)
                          ((_ bit2bool 1) D3)
                          (= R #b000000000000000000001))
                      (or ((_ bit2bool 1) H2)
                          (= G2 #b000000000000000000000)
                          ((_ bit2bool 2) H2)
                          (= G2 #b000000000000000000001))
                      (or (= Q #b000000000000000000000)
                          ((_ bit2bool 1) C1)
                          ((_ bit2bool 2) C1)
                          (= Q #b000000000000000000001))
                      (or ((_ bit2bool 1) K)
                          ((_ bit2bool 1) S1)
                          ((_ bit2bool 37) S1)
                          ((_ bit2bool 2) K)
                          (not ((_ bit2bool 0) K))
                          (not ((_ bit2bool 19) S1))
                          (not ((_ bit2bool 0) S1)))
                      (or ((_ bit2bool 1) K)
                          ((_ bit2bool 3) S1)
                          ((_ bit2bool 20) S1)
                          ((_ bit2bool 2) K)
                          (not ((_ bit2bool 0) K))
                          (not ((_ bit2bool 21) S1))
                          (not ((_ bit2bool 2) S1))
                          (= ((_ extract 39 39) S1) #b1))
                      (or ((_ bit2bool 0) J2)
                          (= R #b000000000000000000000)
                          (= M1 #b000000000000000000)
                          ((_ bit2bool 1) J2)
                          (= a!8 #b1)
                          a!9)
                      a!11
                      a!12
                      a!14
                      a!15
                      a!16
                      a!17
                      (or ((_ bit2bool 6) R2)
                          ((_ bit2bool 10) R2)
                          ((_ bit2bool 1) R2)
                          ((_ bit2bool 2) R2)
                          ((_ bit2bool 3) R2)
                          ((_ bit2bool 5) R2)
                          ((_ bit2bool 8) R2)
                          ((_ bit2bool 9) R2)
                          ((_ bit2bool 4) R2)
                          ((_ bit2bool 0) R2)
                          ((_ bit2bool 7) R2)
                          ((_ bit2bool 11) R2)
                          (= P #b000000000000000000000)
                          (= T #b000000000000000000))
                      a!18
                      (or (= N #b000000000000000000000)
                          (not (= C3 #b000000000000000000000000000000000000000))
                          (= S #b000000000000000000))
                      (or (= B1 #b000000000000000000)
                          (= E1 #b000000000000000000000)
                          (not (= T2 #b000000000000000000000000000000000000000))))))
       (= (INV!slice!1 A
                       B
                       C
                       D
                       E
                       F
                       G
                       H
                       I
                       J
                       K
                       L
                       M
                       N
                       O
                       P
                       Q
                       R
                       S
                       T
                       U
                       V
                       W
                       X
                       Y
                       Z
                       A1
                       B1
                       C1
                       D1
                       E1
                       F1
                       G1
                       H1
                       I1
                       J1
                       K1
                       L1
                       M1
                       N1
                       O1
                       P1
                       Q1
                       R1
                       S1
                       T1
                       U1
                       V1
                       W1
                       X1
                       Y1
                       Z1
                       A2
                       B2
                       C2
                       D2
                       E2
                       F2
                       G2
                       H2
                       I2
                       J2
                       K2
                       L2
                       M2
                       N2
                       O2
                       P2
                       Q2
                       R2
                       S2
                       T2
                       U2
                       V2
                       W2
                       X2
                       Y2
                       Z2
                       A3
                       B3
                       C3
                       D3
                       E3
                       F3
                       G3
                       H3
                       I3
                       J3
                       K3
                       L3
                       M3
                       N3
                       O3
                       P3
                       Q3
                       R3)
          a!19))))
     :weight 0))
